551314
1,98,103,82,95,107,5,100,143,97,8,7,84,30,89,96,35,124,146,26,56,126,93,52,33,105,111,16,133,134,138,54,92,46,90,141,83,75,18,142,85,65,132,55,58,50,137,70,135,86,29,108,102,114,99,19,6,28,9,37,42,120,47,2,110,81,25,20,51,109,43,12,53,139,40,24,118,127,69,36,61,11,148,130,17,66,60,140,117,57,39,41,27,129,101,116,67,38,23,32,131,77,122,14,80,72,147,49,144,145,31,123,74,136,112,64,13,106,91,119,68,128,45,71,44,115,150,4,104,22,149,125,21,78,15,59,79,121,88,94,62,3,113,10,63,48,73,76,34,87,1
